letting n_nurses=25
letting n_days=7
letting n_shift_types=4
letting max_covers=11
letting t_covers=87
letting covers=[10,4,1,0,9,2,2,0,11,2,3,0,0,4,5,0,6,4,0,0,0,4,5,0,10,1,4,0]
letting prefes=[2,4,4,2,1,1,1,1,1,1,3,1,3,1,3,3,1,2,1,1,2,1,1,1,2,4,4,4,2,1,1,2,4,1,1,1,1,1,1,1,3,3,3,3,1,1,1,1,1,4,1,1,2,4,4,4,1,1,1,1,4,1,1,1,1,1,1,1,3,1,1,3,1,3,1,1,1,1,1,1,2,4,1,4,2,1,1,2,1,1,1,4,1,1,1,4,3,1,3,3,1,1,1,3,1,1,1,4,2,4,4,4,1,1,1,1,1,1,3,1,4,1,1,1,3,3,3,3,1,1,1,1,2,1,1,1,4,4,4,4,2,1,1,2,1,4,3,4,1,1,1,4,3,3,3,3,1,1,1,1,1,1,4,4,4,4,1,4,2,1,1,2,1,1,3,1,1,1,1,1,1,1,3,3,1,4,1,1,1,1,4,1,4,4,4,4,2,1,1,2,1,4,1,1,1,1,1,1,3,1,3,3,1,1,1,1,1,1,4,1,4,4,4,4,2,1,1,2,4,1,1,1,1,4,3,1,3,1,1,3,4,1,1,3,1,1,1,1,4,2,4,4,2,1,1,2,1,1,1,4,1,1,1,4,3,3,3,3,1,2,1,1,2,1,1,4,4,4,4,1,2,4,4,2,1,1,3,1,1,1,3,1,3,1,3,3,1,1,3,1,1,1,1,1,4,2,1,4,2,1,1,2,4,1,1,1,1,4,1,1,3,1,3,3,4,1,3,1,1,4,1,1,4,2,4,4,2,1,1,2,1,4,1,1,1,1,3,1,1,1,3,3,1,1,3,1,1,4,1,1,4,4,4,4,2,4,4,2,1,1,1,4,1,1,1,4,3,1,1,1,1,3,1,1,1,1,1,4,4,4,1,4,2,1,1,2,1,1,1,1,4,1,1,1,3,1,3,3,1,1,3,1,1,1,1,1,4,4,4,4,2,1,1,2,1,1,1,1,1,1,3,1,3,1,3,1,1,1,1,1,1,1,1,1,4,4,4,4,2,1,1,2,1,4,1,1,1,4,1,1,3,1,1,3,4,1,1,1,2,1,1,1,4,4,4,1,2,1,1,2,1,1,1,1,4,1,1,1,3,1,3,3,1,1,1,3,1,1,4,1,4,4,4,4,2,1,1,2,1,1,1,1,4,1,1,1,3,1,3,1,1,1,1,1,1,4,1,1,4,4,4,1,1,1,1,1,1,1,1,1,1,4,1,1,1,1,3,3,4,1,1,1,1,1,1,1,4,4,4,4,2,1,1,2,1,1,1,1,4,4,1,1,3,3,3,3,4,1,1,1,1,1,4,1,4,2,4,4,1,4,4,1,1,4,1,1,1,1,1,1,1,1,3,3,1,1,1,3,2,1,1,1,2,2,4,1,1,1,1,1,4,1,1,1,1,1,1,1,3,1,3,3,1,1,1,1,1,4,1,1,4,4,4,1,2,4,4,2,1,1,3,4,1,1,1,4,3,1,3,1,1,1,3,3,1,1,1,4,4,4,4,4,2,1,1,2,1,1,1,1,1,1,1,1,1,1,1,1,1,1,1,1,1,1,1,1,4,4,1,4]
letting ub =  226
